objective value:                                  -13
t_n_5                                               1 	(obj:-1)
t_n_384                                             1 	(obj:-1)
t_n_524                                             1 	(obj:-1)
t_n_578                                             1 	(obj:-1)
t_n_604                                             1 	(obj:-1)
t_n_647                                             1 	(obj:-1)
t_n_689                                             1 	(obj:-1)
t_n_754                                             1 	(obj:-1)
t_n_769                                             1 	(obj:-1)
t_n_845                                             1 	(obj:-1)
t_n_898                                             1 	(obj:-1)
t_n_924                                             1 	(obj:-1)
t_n_966                                             1 	(obj:-1)
